(set-info :Origin "This instance was generated by: BanditFuzz-- an RL fuzzer for SMT solvers" )
(set-info :Author "Joe Scott, Fed Mora, Vijay Ganesh" )
(set-info :Contact "Joe Scott, joseph.scott@uwaterloo.ca")
(set-logic QF_BV)
(declare-const bool_0 Bool)
(declare-const bool_1 Bool)
(declare-const bool_2 Bool)
(declare-const bool_3 Bool)
(declare-const bool_4 Bool)
(declare-const bv_0 (_ BitVec 32))
(declare-const bv_1 (_ BitVec 32))
(declare-const bv_2 (_ BitVec 32))
(declare-const bv_3 (_ BitVec 32))
(declare-const bv_4 (_ BitVec 32))
(assert (and (bvuge (bvsrem bv_2 #xc7c51108 ) (bvsmod bv_2 #xf2ca252a )) (bvugt (bvxor bv_2 bv_1) (bvxor bv_0 #xd7c0aa76 ))))
(assert (xor (bvule (bvxnor bv_0 bv_0) (bvand bv_3 #x629eb9b6 )) (bvslt (bvmul bv_2 bv_0) (bvshl #x3b8123fe  bv_3))))
(assert (bvsgt (bvsrem (bvxor bv_1 #x51e7a480 ) (bvurem bv_0 bv_2)) (bvand (bvsdiv #xa438f44a  bv_0) (bvsub #xb18177b3  bv_0))))
(assert (bvugt (bvurem (bvnand #x9aab7ef6  bv_1) (bvudiv #xc1012585  bv_1)) (bvlshr (bvor #x78013850  bv_0) (bvudiv bv_0 #x470c6157 ))))
(assert (bvugt (bvsub (bvsrem #x08011494  bv_3) (bvnand bv_1 bv_3)) (bvnand (bvashr #x886393ac  bv_4) (bvor bv_2 #xf372e28d ))))
(check-sat)
(exit)
